%BLOCK LATTICE_CART
    2.74336000000000    0.00000000000000    0.00000000000000
   -0.91445330469095    2.58646462244118    0.00000000000000
   -0.91445330469095   -1.29323225046092    2.23994410410340
%ENDBLOCK LATTICE_CART

%BLOCK POSITIONS_FRAC
H    0.00000000000000    0.50000000000000    0.50000000000000
H    0.50000000000000    0.50000000000000    0.00000000000000
H    0.50000000000000    0.00000000000000    0.50000000000000
S    0.00000000000000    0.00000000000000    0.00000000000000
%ENDBLOCK POSITIONS_FRAC