%BLOCK LATTICE_CART
    1.74393839695367    1.00686330293133    0.94688370000000
   -1.74393839695367    1.00686330293133    0.94688370000000
    0.00000000000000   -2.01372660586266    0.94688370000000
%ENDBLOCK LATTICE_CART

%BLOCK POSITIONS_FRAC
S   -0.00000000000000    0.00000000000000    0.00000000000000
%ENDBLOCK POSITIONS_FRAC
