%BLOCK LATTICE_CART
   15.56206000000000    0.00000000000000    0.00000000000000
    7.78103000000000   13.47713929521766    0.00000000000000
    7.78103000000000    4.49237976507255   12.70636878219213
%ENDBLOCK LATTICE_CART

%BLOCK POSITIONS_FRAC
Si    0.23947396725600    0.88034300857440    0.70538100067710
Si    0.86965699142560    0.04461899932290    0.51052603274400
Si    0.20538100067710    0.38034300857440    0.73947396725600
Si    0.01052603274400    0.36965699142560    0.07519797650740
Si    0.54461899932290    0.01052603274400    0.07519797650750
Si    0.51052603274400    0.57519797650740    0.86965699142560
Si    0.70538100067710    0.17480202349260    0.23947396725600
Si    0.57519797650740    0.04461899932290    0.86965699142560
Si    0.86965699142560    0.51052603274400    0.57519797650740
Si    0.67480202349260    0.20538100067710    0.73947396725600
Si    0.70538100067710    0.23947396725600    0.88034300857440
Si    0.73947396725600    0.20538100067710    0.38034300857440
Si    0.73947396725600    0.67480202349260    0.20538100067710
Si    0.17480202349260    0.88034300857440    0.23947396725600
Si    0.07519797650740    0.54461899932290    0.01052603274400
Si    0.20538100067710    0.67480202349260    0.38034300857440
Si    0.04461899932290    0.51052603274400    0.86965699142560
Si    0.17480202349260    0.23947396725600    0.70538100067710
Si    0.36965699142560    0.07519797650750    0.01052603274400
Si    0.88034300857440    0.17480202349260    0.70538100067710
Si    0.07519797650740    0.36965699142560    0.54461899932290
Si    0.73947396725600    0.38034300857440    0.67480202349260
Si    0.51052603274400    0.04461899932290    0.57519797650740
Si    0.38034300857440    0.73947396725600    0.20538100067710
Si    0.23947396725600    0.17480202349260    0.88034300857440
Si    0.57519797650740    0.51052603274400    0.04461899932290
Si    0.38034300857440    0.20538100067710    0.67480202349260
Si    0.17480202349260    0.70538100067710    0.88034300857440
Si    0.36965699142560    0.01052603274400    0.54461899932290
Si    0.36965699142560    0.54461899932290    0.07519797650740
Si    0.01052603274400    0.07519797650740    0.54461899932290
Si    0.54461899932290    0.36965699142560    0.01052603274400
Si    0.54461899932290    0.07519797650740    0.36965699142560
Si    0.86965699142560    0.57519797650740    0.04461899932290
Si    0.23947396725600    0.70538100067710    0.17480202349250
Si    0.01052603274400    0.54461899932290    0.36965699142560
Si    0.20538100067710    0.73947396725600    0.67480202349260
Si    0.57519797650750    0.86965699142560    0.51052603274400
Si    0.04461899932290    0.86965699142560    0.57519797650740
Si    0.38034300857440    0.67480202349260    0.73947396725600
Si    0.70538100067710    0.88034300857440    0.17480202349260
Si    0.51052603274400    0.86965699142560    0.04461899932290
Si    0.67480202349260    0.38034300857440    0.20538100067710
Si    0.88034300857440    0.23947396725600    0.17480202349260
Si    0.04461899932290    0.57519797650740    0.51052603274400
Si    0.88034300857440    0.70538100067710    0.23947396725600
Si    0.07519797650750    0.01052603274400    0.36965699142560
Si    0.67480202349260    0.73947396725600    0.38034300857440
O    0.53513397154360    0.89477799503030    0.11847104611750
O    0.12500000000000    0.49857499223360    0.75142500776640
O    0.11847104611750    0.45161698730870    0.53513397154360
O    0.29838301269130    0.85522200496970    0.21486602845640
O    0.12500000000000    0.62500000000000    0.49857499223360
O    0.61847104611750    0.95161698730870    0.39477799503030
O    0.75142500776640    0.49857499223360    0.62500000000000
O    0.35522200496970    0.79838301269130    0.71486602845640
O    0.29838301269130    0.21486602845640    0.63152895388250
O    0.21486602845640    0.29838301269130    0.85522200496970
O    0.99857499223360    0.25142500776640    0.12500000000000
O    0.71486602845640    0.13152895388250    0.35522200496970
O    0.75142500776640    0.12500000000000    0.49857499223360
O    0.13152895388250    0.79838301269130    0.35522200496970
O    0.99857499223360    0.62500000000000    0.25142500776640
O    0.91509099602720    0.58490900397280    0.58490900397280
O    0.39477799503030    0.03513397154360    0.61847104611750
O    0.66509099602720    0.33490900397280    0.66509099602720
O    0.08490900397280    0.41509099602720    0.08490900397280
O    0.91509099602720    0.58490900397280    0.91509099602720
O    0.66509099602720    0.66509099602720    0.33490900397280
O    0.39477799503030    0.61847104611750    0.95161698730870
O    0.03513397154360    0.61847104611750    0.39477799503030
O    0.66509099602720    0.33490900397280    0.33490900397280
O    0.33490900397280    0.66509099602720    0.33490900397280
O    0.83490900397280    0.83490900397280    0.16509099602720
O    0.13152895388250    0.35522200496970    0.71486602845640
O    0.16509099602720    0.83490900397280    0.16509099602720
O    0.25142500776640    0.12500000000000    0.99857499223360
O    0.62500000000000    0.25142500776640    0.99857499223360
O    0.49857499223360    0.12500000000000    0.62500000000000
O    0.83490900397280    0.16509099602720    0.16509099602720
O    0.12500000000000    0.75142500776640    0.62500000000000
O    0.71486602845640    0.35522200496970    0.79838301269130
O    0.11847104611750    0.89477799503030    0.45161698730870
O    0.33490900397280    0.33490900397280    0.66509099602720
O    0.45161698730870    0.11847104611750    0.89477799503030
O    0.89477799503030    0.45161698730870    0.11847104611750
O    0.58490900397280    0.58490900397280    0.91509099602720
O    0.61847104611750    0.03513397154360    0.95161698730870
O    0.25142500776640    0.99857499223360    0.62500000000000
O    0.79838301269130    0.35522200496970    0.13152895388250
O    0.16509099602720    0.16509099602720    0.83490900397280
O    0.99857499223360    0.12500000000000    0.62500000000000
O    0.12500000000000    0.99857499223360    0.25142500776640
O    0.21486602845640    0.85522200496970    0.63152895388250
O    0.41509099602720    0.08490900397280    0.08490900397280
O    0.11847104611750    0.53513397154360    0.89477799503030
O    0.89477799503030    0.53513397154360    0.45161698730870
O    0.95161698730870    0.39477799503030    0.61847104611750
O    0.35522200496970    0.71486602845640    0.13152895388250
O    0.89477799503030    0.11847104611750    0.53513397154360
O    0.53513397154360    0.45161698730870    0.89477799503030
O    0.53513397154360    0.11847104611750    0.45161698730870
O    0.41509099602720    0.08490900397280    0.41509099602720
O    0.35522200496970    0.13152895388250    0.79838301269130
O    0.45161698730870    0.53513397154360    0.11847104611750
O    0.62500000000000    0.75142500776640    0.49857499223360
O    0.79838301269130    0.13152895388250    0.71486602845640
O    0.08490900397280    0.41509099602720    0.41509099602720
O    0.85522200496970    0.21486602845640    0.29838301269130
O    0.95161698730870    0.61847104611750    0.03513397154360
O    0.25142500776640    0.62500000000000    0.12500000000000
O    0.49857499223360    0.62500000000000    0.75142500776640
O    0.58490900397280    0.91509099602720    0.91509099602720
O    0.61847104611750    0.39477799503030    0.03513397154360
O    0.16509099602720    0.83490900397280    0.83490900397280
O    0.13152895388250    0.71486602845640    0.79838301269130
O    0.29838301269130    0.63152895388250    0.85522200496970
O    0.79838301269130    0.71486602845640    0.35522200496970
O    0.63152895388250    0.85522200496970    0.29838301269130
O    0.39477799503030    0.95161698730870    0.03513397154360
O    0.91509099602720    0.91509099602720    0.58490900397280
O    0.95161698730870    0.03513397154360    0.39477799503030
O    0.08490900397280    0.08490900397280    0.41509099602720
O    0.33490900397280    0.66509099602720    0.66509099602720
O    0.62500000000000    0.49857499223360    0.12500000000000
O    0.63152895388250    0.21486602845640    0.85522200496970
O    0.85522200496970    0.29838301269130    0.63152895388250
O    0.75142500776640    0.62500000000000    0.12500000000000
O    0.71486602845640    0.79838301269130    0.13152895388250
O    0.83490900397280    0.16509099602720    0.83490900397280
O    0.12500000000000    0.25142500776640    0.62500000000000
O    0.85522200496970    0.63152895388250    0.21486602845640
O    0.03513397154360    0.39477799503030    0.95161698730870
O    0.63152895388250    0.29838301269130    0.21486602845640
O    0.45161698730870    0.89477799503030    0.53513397154360
O    0.49857499223360    0.75142500776640    0.12500000000000
O    0.62500000000000    0.12500000000000    0.75142500776640
O    0.58490900397280    0.91509099602720    0.58490900397280
O    0.21486602845640    0.63152895388250    0.29838301269130
O    0.62500000000000    0.99857499223360    0.12500000000000
O    0.41509099602720    0.41509099602720    0.08490900397280
O    0.62500000000000    0.12500000000000    0.25142500776640
O    0.12500000000000    0.62500000000000    0.99857499223360
O    0.03513397154360    0.95161698730870    0.61847104611750
%ENDBLOCK POSITIONS_FRAC